14335.76,48.58,55.18
14472.13,48.12,54.66
12643.69,55.08,62.57
15101.29,46.12,52.39
14533.19,47.92,54.43
13854.81,50.26,57.1
14661.06,47.5,53.96
16295.62,42.74,48.55
15217.32,45.76,51.99
13628.17,51.1,58.05
13920.94,50.03,56.83
13720.54,50.76,57.66
15275.06,45.59,51.79
14347.38,48.54,55.14
14721.73,47.3,53.74
14448.77,48.2,54.75
13569.16,51.32,58.3
14345.68,48.54,55.15
14974.06,46.51,52.83
14200.74,49.04,55.71
